100
32
31
1
3
12
23
10
2
27
13
27
19
6
6
27
30
15
17
1
1
3
2
2
2
25
4
1
1
2
2
2
3
2
17
1
1
2
2
18
16
1
1
7
1
5
2
3
3
17
2
3
2
2
4
4
2
2
17
2
1
4
1
1
18
4
2
2
1
1
2
1
19
18
9
1
1
1
4
3
1
3
22
2
3
3
1
3
3
17
2
2
5
4
2
23
6
3
2
2
1
1